40
    60    22    47    13    21    98    85    91    90    44    32    68    89    93    11    88    66    28    23     3    99    88    47    62    95    65    41    21    88     2    40    40    40    97    59    78    41   100    89     1
     1    10     2     7     2     2     6     4     7     6     9     9     7     2     5     6     4     7     8     2     7     2     9     2     2     6    10     4     6     1     7     5     2     9     1     5     4     5     5     3
  1442  1639  1483  2221  2264  1743  2047  1442  2193  2139  2239  1543  1725  1378  2034  1385  1939  2135  1892  1846  1690  1896  1993  1711  1610  2215  1922  2179  2199  2115  1718  1850  1487  1917  1566  2132  2188  2070  1935  2228
